TYPE : Vertex Cover
DIMENSION: 26
EDGE_DATA_SECTION:
0 3
0 7
0 15
0 16
0 17
0 20
1 3
1 6
1 7
1 14
1 19
1 21
1 23
2 8
2 15
2 17
2 19
2 23
2 25
3 6
3 13
3 17
3 22
3 25
4 7
4 8
4 10
4 15
4 20
4 23
4 25
5 7
5 8
5 23
5 24
6 7
6 8
6 9
6 12
6 13
6 18
6 22
6 24
6 25
7 10
7 13
7 14
7 17
7 20
7 21
7 24
7 25
8 9
8 11
8 13
8 16
8 17
8 18
8 19
8 22
9 12
9 14
9 17
9 21
9 22
10 11
10 13
10 14
10 17
10 18
10 21
10 25
11 22
11 24
12 16
12 19
12 21
12 22
12 23
14 15
14 18
15 16
15 17
15 23
16 17
16 18
16 25
17 18
18 19
18 20
18 24
19 24
21 23
21 25
22 24
23 24
-1
VERTEX_DEGREE:
6.0 7.0 6.0 7.0 7.0 4.0 11.0 13.0 12.0 7.0 9.0 4.0 7.0 5.0 6.0 7.0 7.0 10.0 9.0 6.0 4.0 7.0 7.0 8.0 8.0 8.0
VERTEX_COVER:
3 6 7 8 10 12 14 15 16 17 19 20 21 22 23 24 25
EOF
